sat
(= x_2_row_1 0b1010)
(= x_1_col_1 0b0110)
(= x_1_row_2 0b0011)
(= x_1_row_3 0b1001)
(= x_1_col_2 0b0011)
(= x_2_row_2 0b0011)
(= x_1_col_3 0b1001)
(= x_2_col_2 0b1001)
(= x_1_row_1 0b0110)
(= x_2_col_0 0b1100)
(= x_1_col_0 0b1100)
(= x_1_row_0 0b1100)
(= x_2_col_3 0b0011)
(= x_2_row_3 0b0101)
(= x_2_row_0 0b1100)
(= x_2_col_1 0b0110)
